
Gurobi 9.1.2 (linux64, gurobi_cl) logging started Fri Jul 30 13:52:49 2021

Using license file /opt/gurobi/gurobi.lic
Set parameter TimeLimit to value 600
Set parameter LogFile to value 912-Presolve2-glass4-2.log
Set parameter Presolve to value 2
Set parameter Seed to value 2

Gurobi Optimizer version 9.1.2 build v9.1.2rc0 (linux64)
Copyright (c) 2021, Gurobi Optimization, LLC

Read MPS format model from file /nfs/models/mip/glass4.mps.bz2
Reading time = 0.00 seconds
glass4: 396 rows, 322 columns, 1815 nonzeros
Thread count: 4 physical cores, 8 logical processors, using up to 8 threads
Optimize a model with 396 rows, 322 columns and 1815 nonzeros
Model fingerprint: 0x0a9d9037
Variable types: 20 continuous, 302 integer (0 binary)
Coefficient statistics:
  Matrix range     [1e+00, 8e+06]
  Objective range  [1e+00, 1e+06]
  Bounds range     [1e+00, 8e+02]
  RHS range        [1e+00, 8e+06]
Presolve removed 6 rows and 6 columns
Presolve time: 0.00s
Presolved: 390 rows, 316 columns, 1803 nonzeros
Variable types: 19 continuous, 297 integer (297 binary)
Found heuristic solution: objective 3.133356e+09
Presolved: 390 rows, 316 columns, 1803 nonzeros


Root relaxation: objective 8.000024e+08, 36 iterations, 0.00 seconds

    Nodes    |    Current Node    |     Objective Bounds      |     Work
 Expl Unexpl |  Obj  Depth IntInf | Incumbent    BestBd   Gap | It/Node Time

     0     0 8.0000e+08    0   72 3.1334e+09 8.0000e+08  74.5%     -    0s
H    0     0                    2.550016e+09 8.0000e+08  68.6%     -    0s
H    0     0                    2.500021e+09 8.0000e+08  68.0%     -    0s
H    0     0                    2.400022e+09 8.0000e+08  66.7%     -    0s
     0     0 8.0000e+08    0   72 2.4000e+09 8.0000e+08  66.7%     -    0s
H    0     0                    2.350021e+09 8.0000e+08  66.0%     -    0s
H    0     0                    2.300020e+09 8.0000e+08  65.2%     -    0s
H    0     0                    1.840015e+09 8.0000e+08  56.5%     -    0s
     0     0 8.0000e+08    0   88 1.8400e+09 8.0000e+08  56.5%     -    0s
     0     0 8.0000e+08    0   83 1.8400e+09 8.0000e+08  56.5%     -    0s
     0     2 8.0000e+08    0   82 1.8400e+09 8.0000e+08  56.5%     -    0s
H  134   172                    1.800015e+09 8.0000e+08  55.6%   7.7    0s
H  188   428                    1.800014e+09 8.0000e+08  55.6%   6.5    0s
H  829   851                    1.800014e+09 8.0000e+08  55.6%   5.9    0s
H 1324  1104                    1.800013e+09 8.0000e+08  55.6%   5.8    0s
H 1335  1053                    1.700014e+09 8.0000e+08  52.9%   5.8    0s
H 4062  2173                    1.600014e+09 8.0000e+08  50.0%   4.4    0s
H 4447  2173                    1.600013e+09 8.0000e+08  50.0%   4.3    0s
H29890 15145                    1.500012e+09 9.0000e+08  40.0%   3.6    3s
H29912 14400                    1.475012e+09 9.0000e+08  39.0%   3.6    4s
 29939 14418 1.4000e+09   32  104 1.4750e+09 9.0000e+08  39.0%   3.6    5s
 39734 15814 1.2396e+09   52   32 1.4750e+09 9.0001e+08  39.0%   6.3   10s
 90217 25722 1.4000e+09   59   20 1.4750e+09 1.0333e+09  29.9%   7.6   15s
 167445 46168 1.1800e+09   62   38 1.4750e+09 1.1750e+09  20.3%   7.2   20s
 249783 74896 infeasible   51      1.4750e+09 1.2000e+09  18.6%   7.0   25s
 326549 101681 1.3167e+09   60   28 1.4750e+09 1.2000e+09  18.6%   6.9   30s
*330492 86932              74    1.433346e+09 1.2000e+09  16.3%   6.9   30s
 395006 104871 infeasible   55      1.4333e+09 1.2000e+09  16.3%   6.8   35s
 461327 123473 1.2000e+09   52   41 1.4333e+09 1.2000e+09  16.3%   6.7   40s
*479491 65469              92    1.375015e+09 1.2000e+09  12.7%   6.7   41s
*481031 59600              75    1.350013e+09 1.2000e+09  11.1%   6.7   41s
*493356 19342              61    1.200013e+09 1.2000e+09  0.00%   6.7   42s

Cutting planes:
  Gomory: 7
  Cover: 2
  Implied bound: 15
  MIR: 15
  Flow cover: 49
  RLT: 7
  Relax-and-lift: 14

Explored 493483 nodes (3301642 simplex iterations) in 42.53 seconds
Thread count was 8 (of 8 available processors)

Solution count 10: 1.20001e+09 1.35001e+09 1.37501e+09 ... 1.80001e+09

Optimal solution found (tolerance 1.00e-04)
Best objective 1.200012600000e+09, best bound 1.200007670403e+09, gap 0.0004%
